output ([(((("\n"++problem_name)++"\n")++"L:")++show(L))++"\n"]++[if problem[i,j]==0 then "*" else show(letters[fix(L[problem[i,j]])]) endif++if j==cols then "\n" else "" endif | i in 1..rows, j in 1..cols, ])++["\n"];
int: rows = 19;
int: cols = 19;
array [1..rows,1..cols] of int: problem = [|1,2,3,4,0,0,5,6,7,0,8,9,10,11,0,12,13,14,15|16,17,18,19,0,20,21,22,23,0,24,25,26,27,0,28,29,30,31|32,33,34,35,0,36,37,38,39,0,40,41,42,43,0,44,45,46,47|48,49,50,51,52,53,54,0,55,56,57,0,58,59,60,61,0,0,0|0,0,0,62,63,64,65,66,67,68,69,70,71,72,73,74,75,76,77|78,79,80,81,82,83,0,84,85,86,87,88,0,0,89,90,91,92,93|94,95,96,0,97,98,99,100,0,101,102,103,104,0,0,105,106,107,108|109,110,111,112,0,113,114,115,116,0,0,117,118,119,120,0,121,122,123|124,125,126,127,0,0,128,129,130,131,132,0,133,134,135,136,0,0,0|137,138,139,140,141,142,143,144,145,146,147,148,149,150,151,152,153,154,155|0,0,0,156,157,158,159,0,160,161,162,163,164,0,0,165,166,167,168|169,170,171,0,172,173,174,175,0,0,176,177,178,179,0,180,181,182,183|184,185,186,187,0,0,188,189,190,191,0,192,193,194,195,0,196,197,198|199,200,201,202,203,0,0,204,205,206,207,208,0,209,210,211,212,213,214|215,216,217,218,219,220,221,222,223,224,225,226,227,228,229,230,0,0,0|0,0,0,231,232,233,234,0,235,236,237,0,238,239,240,241,242,243,244|245,246,247,248,0,249,250,251,252,0,253,254,255,256,0,257,258,259,260|261,262,263,264,0,265,266,267,268,0,269,270,271,272,0,273,274,275,276|277,278,279,280,0,281,282,283,284,0,285,286,287,0,0,288,289,290,291|];
int: num_letters = 26;
array [1..num_letters] of string: letters = ["a","b","c","d","e","f","g","h","i","j","k","l","m","n","o","p","q","r","s","t","u","v","w","x","y","z"];
int: N = 291;
array [0..N] of int: L;
string: problem_name = "19.05, 19 x 19";
